MARKOV
230
 2 2 2 2 2 2 2 2 2 2 2 2 2 2 2 2 2 2 2 2 2 2 2 2 2 2 2 2 2 2 2 2 2 2 2 2 2 2 2 2 2 2 2 2 2 2 2 2 2 2 2 2 2 2 2 2 2 2 2 2 2 2 2 2 2 2 2 2 2 2 2 2 2 2 2 2 2 2 2 2 2 2 2 2 2 2 2 2 2 2 2 2 2 2 2 2 2 2 2 2 2 2 2 2 2 2 2 2 2 2 2 2 2 2 2 2 2 2 2 2 2 2 2 2 2 2 2 2 2 2 2 2 2 2 2 2 2 2 2 2 2 2 2 2 2 2 2 2 2 2 2 2 2 2 2 2 2 2 2 2 2 2 2 2 2 2 2 2 2 2 2 2 2 2 2 2 2 2 2 2 2 2 2 2 2 2 2 2 2 2 2 2 2 2 2 2 2 2 2 2 2 2 2 2 2 2 2 2 2 2 2 2 2 2 2 2 2 2 2 2 2 2 2 2 2 2 2 2 2 2
859
1	0 
1	1 
1	2 
1	3 
1	4 
1	5 
1	6 
1	7 
1	8 
1	9 
1	10 
1	11 
1	12 
1	13 
1	14 
1	15 
1	16 
1	17 
1	18 
1	19 
1	20 
1	21 
1	22 
1	23 
1	24 
1	25 
1	26 
1	27 
1	28 
1	29 
1	30 
1	31 
1	32 
1	33 
1	34 
1	35 
1	36 
1	37 
1	38 
1	39 
1	40 
1	41 
1	42 
1	43 
1	44 
1	45 
1	46 
1	47 
1	48 
1	49 
1	50 
1	51 
1	52 
1	53 
1	54 
1	55 
1	56 
1	57 
1	58 
1	59 
1	60 
1	61 
1	62 
1	63 
1	64 
1	65 
1	66 
1	67 
1	68 
1	69 
1	70 
1	71 
1	72 
1	73 
1	74 
1	75 
1	76 
1	77 
1	78 
1	79 
1	80 
1	81 
1	82 
1	83 
1	84 
1	85 
1	86 
1	87 
1	88 
1	89 
1	90 
1	91 
1	92 
1	93 
1	94 
1	95 
1	96 
1	97 
1	98 
1	99 
1	100 
1	101 
1	102 
1	103 
1	104 
1	105 
1	106 
1	107 
1	108 
1	109 
1	110 
1	111 
1	112 
1	113 
1	114 
1	115 
1	116 
1	117 
1	118 
1	119 
1	120 
1	121 
1	122 
1	123 
1	124 
1	125 
1	126 
1	127 
1	128 
1	129 
1	130 
1	131 
1	132 
1	133 
1	134 
1	135 
1	136 
1	137 
1	138 
1	139 
1	140 
1	141 
1	142 
1	143 
1	144 
1	145 
1	146 
1	147 
1	148 
1	149 
1	150 
1	151 
1	152 
1	153 
1	154 
1	155 
1	156 
1	157 
1	158 
1	159 
1	160 
1	161 
1	162 
1	163 
1	164 
1	165 
1	166 
1	167 
1	168 
1	169 
1	170 
1	171 
1	172 
1	173 
1	174 
1	175 
1	176 
1	177 
1	178 
1	179 
1	180 
1	181 
1	182 
1	183 
1	184 
1	185 
1	186 
1	187 
1	188 
1	189 
1	190 
1	191 
1	192 
1	193 
1	194 
1	195 
1	196 
1	197 
1	198 
1	199 
1	200 
1	201 
1	202 
1	203 
1	204 
1	205 
1	206 
1	207 
1	208 
1	209 
1	210 
1	211 
1	212 
1	213 
1	214 
1	215 
1	216 
1	217 
1	218 
1	219 
1	220 
1	221 
1	222 
1	223 
1	224 
1	225 
1	226 
1	227 
1	228 
1	229 
2	1 2 
2	1 112 
2	2 112 
2	2 151 
2	2 153 
2	3 4 
2	3 6 
2	3 186 
2	3 187 
2	4 185 
2	4 186 
2	5 6 
2	5 181 
2	5 184 
2	5 189 
2	6 187 
2	6 189 
2	7 8 
2	7 9 
2	7 12 
2	7 14 
2	7 15 
2	8 9 
2	8 11 
2	8 14 
2	8 46 
2	8 48 
2	8 122 
2	9 13 
2	9 15 
2	9 46 
2	10 13 
2	10 15 
2	11 14 
2	11 119 
2	11 122 
2	11 194 
2	12 14 
2	12 15 
2	12 194 
2	13 47 
2	14 194 
2	16 17 
2	16 18 
2	16 97 
2	16 98 
2	16 212 
2	17 18 
2	17 129 
2	17 212 
2	17 213 
2	18 71 
2	18 129 
2	19 20 
2	19 21 
2	19 22 
2	19 23 
2	19 196 
2	19 225 
2	20 21 
2	20 23 
2	20 25 
2	20 39 
2	20 40 
2	20 109 
2	21 22 
2	21 25 
2	21 28 
2	22 28 
2	22 31 
2	22 196 
2	22 197 
2	23 40 
2	23 54 
2	23 225 
2	23 226 
2	24 27 
2	24 30 
2	24 31 
2	24 195 
2	25 26 
2	25 28 
2	25 109 
2	25 110 
2	25 111 
2	26 28 
2	26 29 
2	26 30 
2	26 110 
2	27 29 
2	27 30 
2	28 30 
2	28 31 
2	29 30 
2	30 31 
2	31 195 
2	31 197 
2	32 33 
2	32 35 
2	32 84 
2	32 132 
2	32 182 
2	33 34 
2	33 84 
2	33 86 
2	33 182 
2	34 86 
2	34 180 
2	35 83 
2	35 84 
2	35 132 
2	35 133 
2	35 162 
2	36 37 
2	36 38 
2	36 39 
2	36 43 
2	36 59 
2	36 60 
2	36 106 
2	36 109 
2	37 60 
2	37 106 
2	37 108 
2	38 39 
2	38 43 
2	38 44 
2	39 40 
2	39 44 
2	39 109 
2	40 41 
2	40 44 
2	40 54 
2	41 42 
2	41 44 
2	41 54 
2	41 179 
2	41 200 
2	42 43 
2	42 44 
2	42 79 
2	42 80 
2	42 178 
2	42 179 
2	43 44 
2	43 59 
2	43 80 
2	45 46 
2	45 47 
2	45 48 
2	45 157 
2	45 190 
2	45 193 
2	46 47 
2	46 48 
2	47 190 
2	48 122 
2	48 157 
2	48 158 
2	49 50 
2	49 53 
2	49 72 
2	49 171 
2	49 198 
2	49 201 
2	50 51 
2	50 52 
2	50 53 
2	50 199 
2	50 201 
2	51 52 
2	51 54 
2	51 199 
2	51 200 
2	51 221 
2	52 53 
2	52 128 
2	52 221 
2	52 224 
2	53 72 
2	53 75 
2	53 128 
2	53 207 
2	53 211 
2	54 200 
2	54 221 
2	54 226 
2	55 57 
2	55 58 
2	55 112 
2	55 113 
2	55 149 
2	55 153 
2	56 57 
2	56 58 
2	56 166 
2	56 167 
2	56 169 
2	57 58 
2	57 113 
2	57 166 
2	58 149 
2	58 169 
2	59 60 
2	59 61 
2	59 62 
2	59 64 
2	59 76 
2	59 80 
2	60 62 
2	60 108 
2	61 63 
2	61 64 
2	61 76 
2	61 148 
2	61 152 
2	62 64 
2	62 65 
2	63 64 
2	63 65 
2	63 152 
2	64 65 
2	66 67 
2	66 68 
2	66 88 
2	66 154 
2	66 191 
2	67 68 
2	67 191 
2	67 192 
2	68 88 
2	68 89 
2	68 92 
2	69 70 
2	69 71 
2	69 129 
2	69 220 
2	69 223 
2	70 195 
2	70 220 
2	70 229 
2	71 129 
2	72 74 
2	72 75 
2	72 171 
2	72 176 
2	73 74 
2	73 75 
2	73 123 
2	73 174 
2	73 208 
2	73 209 
2	73 215 
2	74 75 
2	74 174 
2	74 176 
2	75 207 
2	75 208 
2	76 78 
2	76 80 
2	76 81 
2	76 148 
2	76 150 
2	77 78 
2	77 81 
2	77 135 
2	77 168 
2	77 170 
2	77 204 
2	78 81 
2	78 150 
2	78 170 
2	79 80 
2	79 81 
2	79 178 
2	79 202 
2	80 81 
2	81 202 
2	81 204 
2	82 85 
2	82 86 
2	82 103 
2	82 104 
2	82 165 
2	83 84 
2	83 85 
2	83 103 
2	83 162 
2	83 164 
2	84 85 
2	84 86 
2	85 86 
2	85 103 
2	87 88 
2	87 90 
2	87 91 
2	87 92 
2	87 218 
2	88 90 
2	88 92 
2	88 154 
2	89 92 
2	89 219 
2	90 91 
2	90 139 
2	90 143 
2	90 154 
2	91 115 
2	91 116 
2	91 143 
2	91 218 
2	92 218 
2	92 219 
2	93 94 
2	93 95 
2	93 96 
2	93 97 
2	93 98 
2	93 100 
2	93 102 
2	94 95 
2	94 100 
2	94 121 
2	94 209 
2	95 98 
2	95 206 
2	95 208 
2	95 209 
2	95 212 
2	96 97 
2	96 102 
2	97 98 
2	98 212 
2	99 100 
2	99 101 
2	99 102 
2	99 194 
2	100 102 
2	100 119 
2	100 121 
2	100 194 
2	101 102 
2	101 194 
2	103 104 
2	103 138 
2	103 164 
2	104 105 
2	104 137 
2	104 138 
2	104 165 
2	105 137 
2	105 165 
2	105 166 
2	105 167 
2	106 107 
2	106 108 
2	106 109 
2	106 111 
2	107 108 
2	107 110 
2	107 111 
2	109 111 
2	110 111 
2	112 113 
2	112 153 
2	114 115 
2	114 117 
2	114 187 
2	114 189 
2	114 218 
2	115 116 
2	115 118 
2	115 184 
2	115 189 
2	115 218 
2	116 118 
2	116 134 
2	116 143 
2	116 147 
2	117 186 
2	117 187 
2	117 218 
2	117 219 
2	118 132 
2	118 134 
2	118 184 
2	118 188 
2	119 120 
2	119 121 
2	119 122 
2	119 194 
2	120 121 
2	120 122 
2	120 123 
2	120 158 
2	120 216 
2	121 123 
2	121 209 
2	122 158 
2	123 209 
2	123 215 
2	123 216 
2	124 125 
2	124 126 
2	124 177 
2	124 178 
2	124 199 
2	124 201 
2	124 203 
2	124 205 
2	125 126 
2	125 127 
2	125 198 
2	125 201 
2	126 127 
2	126 163 
2	126 203 
2	127 161 
2	127 163 
2	127 175 
2	127 198 
2	128 130 
2	128 210 
2	128 211 
2	128 213 
2	128 224 
2	129 130 
2	129 213 
2	129 222 
2	129 223 
2	130 213 
2	130 222 
2	130 224 
2	131 132 
2	131 133 
2	131 134 
2	131 144 
2	131 145 
2	131 159 
2	132 133 
2	132 134 
2	132 182 
2	132 188 
2	133 159 
2	133 162 
2	134 144 
2	134 147 
2	135 136 
2	135 137 
2	135 138 
2	135 168 
2	135 204 
2	136 138 
2	136 160 
2	136 203 
2	136 204 
2	136 205 
2	137 138 
2	137 167 
2	137 168 
2	138 160 
2	138 164 
2	139 140 
2	139 141 
2	139 143 
2	139 154 
2	140 141 
2	140 154 
2	140 156 
2	140 214 
2	140 217 
2	141 142 
2	141 143 
2	141 173 
2	141 217 
2	142 143 
2	142 146 
2	142 147 
2	142 172 
2	142 173 
2	143 147 
2	144 145 
2	144 146 
2	144 147 
2	145 146 
2	145 159 
2	145 161 
2	145 172 
2	145 175 
2	146 147 
2	146 172 
2	148 149 
2	148 150 
2	148 151 
2	148 152 
2	148 153 
2	149 150 
2	149 153 
2	149 169 
2	149 170 
2	150 170 
2	151 152 
2	151 153 
2	154 156 
2	154 191 
2	155 156 
2	155 157 
2	155 158 
2	155 191 
2	155 193 
2	155 214 
2	155 216 
2	156 191 
2	156 214 
2	157 158 
2	157 193 
2	158 216 
2	159 161 
2	159 162 
2	159 163 
2	160 162 
2	160 163 
2	160 164 
2	160 203 
2	161 163 
2	161 175 
2	162 163 
2	162 164 
2	163 203 
2	165 166 
2	166 167 
2	167 168 
2	167 169 
2	168 169 
2	168 170 
2	169 170 
2	171 175 
2	171 176 
2	171 198 
2	172 173 
2	172 174 
2	172 175 
2	172 176 
2	173 174 
2	173 215 
2	173 217 
2	174 176 
2	174 215 
2	175 176 
2	175 198 
2	177 178 
2	177 179 
2	177 199 
2	177 200 
2	178 179 
2	178 202 
2	178 205 
2	179 200 
2	180 181 
2	180 182 
2	180 183 
2	181 183 
2	181 184 
2	182 183 
2	182 188 
2	183 184 
2	183 188 
2	184 188 
2	184 189 
2	185 186 
2	185 219 
2	186 187 
2	186 219 
2	187 189 
2	190 192 
2	190 193 
2	191 192 
2	191 193 
2	192 193 
2	195 197 
2	195 229 
2	196 197 
2	196 225 
2	196 227 
2	197 227 
2	197 229 
2	198 201 
2	199 200 
2	199 201 
2	202 204 
2	202 205 
2	203 205 
2	204 205 
2	206 207 
2	206 208 
2	206 210 
2	206 212 
2	207 208 
2	207 211 
2	208 209 
2	210 211 
2	210 212 
2	210 213 
2	212 213 
2	214 216 
2	214 217 
2	215 216 
2	215 217 
2	216 217 
2	218 219 
2	220 223 
2	220 227 
2	220 229 
2	221 222 
2	221 224 
2	221 226 
2	221 228 
2	222 223 
2	222 224 
2	222 228 
2	223 227 
2	223 228 
2	225 226 
2	225 227 
2	225 228 
2	226 228 
2	227 228 
2	227 229 
0	

2
 0.252912 1
2
 0.435277 1
2
 0.501637 1
2
 1 0.0953438
2
 1 0.522379
2
 1 0.263201
2
 1 0.332481
2
 1 0.237872
2
 1 0.293758
2
 1 0.189049
2
 1 0.201198
2
 1 0.407058
2
 1 0.165787
2
 1 0.343141
2
 1 0.228187
2
 1 0.13739
2
 0.166449 1
2
 0.236484 1
2
 1 0.997336
2
 1 0.315967
2
 1 0.16877
2
 1 0.0838749
2
 1 0.158299
2
 1 0.455174
2
 1 0.108698
2
 1 0.0876463
2
 1 0.122653
2
 1 0.896303
2
 1 0.173845
2
 1 0.202213
2
 1 0.19438
2
 1 0.0632881
2
 0.32707 1
2
 1 0.705651
2
 1 0.539728
2
 0.338001 1
2
 0.822262 1
2
 1 0.818424
2
 0.417685 1
2
 1 0.405712
2
 0.381675 1
2
 1 0.949828
2
 0.534257 1
2
 0.277622 1
2
 0.413513 1
2
 1 0.464118
2
 1 0.39075
2
 0.424684 1
2
 1 0.450574
2
 0.0544505 1
2
 0.191523 1
2
 0.0475867 1
2
 0.0565007 1
2
 0.0689478 1
2
 0.0834339 1
2
 0.460538 1
2
 0.77693 1
2
 1 0.676788
2
 0.707265 1
2
 0.92949 1
2
 0.659171 1
2
 1 0.703077
2
 0.303074 1
2
 1 0.384278
2
 1 0.70216
2
 1 0.529716
2
 1 0.491017
2
 1 0.329548
2
 1 0.106814
2
 0.386963 1
2
 0.573245 1
2
 0.0800583 1
2
 0.121694 1
2
 0.636035 1
2
 0.868434 1
2
 0.284764 1
2
 1 0.752036
2
 0.429181 1
2
 0.144083 1
2
 1 0.643337
2
 0.784993 1
2
 0.881519 1
2
 1 0.743964
2
 0.401103 1
2
 1 0.555032
2
 0.442952 1
2
 1 0.205191
2
 0.336132 1
2
 0.903171 1
2
 1 0.330307
2
 0.441955 1
2
 0.470186 1
2
 1 0.838412
2
 1 0.547064
2
 1 0.956174
2
 1 0.815237
2
 1 0.416471
2
 0.46836 1
2
 1 0.831007
2
 1 0.886927
2
 0.306376 1
2
 1 0.675798
2
 1 0.679495
2
 0.229201 1
2
 1 0.847514
2
 0.280987 1
2
 0.805117 1
2
 1 0.724148
2
 0.822428 1
2
 1 0.615402
2
 1 0.603649
2
 1 0.624381
2
 0.580002 1
2
 1 0.955024
2
 1 0.585076
2
 1 0.820506
2
 1 0.417626
2
 1 0.17941
2
 1 0.645798
2
 0.840876 1
2
 1 0.254622
2
 1 0.840176
2
 1 0.167006
2
 0.940733 1
2
 0.0285526 1
2
 0.00729317 1
2
 0.18777 1
2
 0.0634377 1
2
 0.283428 1
2
 0.594787 1
2
 0.385245 1
2
 0.110427 1
2
 0.153172 1
2
 0.338186 1
2
 1 0.45334
2
 0.112942 1
2
 0.111194 1
2
 0.160177 1
2
 0.090948 1
2
 1 0.77059
2
 1 0.244754
2
 0.933802 1
2
 1 0.505192
2
 1 0.392159
2
 1 0.693437
2
 0.719407 1
2
 1 0.828532
2
 0.739898 1
2
 1 0.147117
2
 0.353591 1
2
 0.333447 1
2
 1 0.431351
2
 1 0.169445
2
 1 0.88351
2
 1 0.209534
2
 1 0.183963
2
 1 0.263858
2
 1 0.756852
2
 1 0.295891
2
 0.209072 1
2
 0.264751 1
2
 0.0610896 1
2
 0.209633 1
2
 0.227487 1
2
 0.131494 1
2
 1 0.181735
2
 0.754231 1
2
 0.108363 1
2
 0.187947 1
2
 0.121018 1
2
 0.134395 1
2
 0.0307785 1
2
 0.39603 1
2
 1 0.474321
2
 0.813587 1
2
 0.0481709 1
2
 0.511163 1
2
 0.0174676 1
2
 0.219784 1
2
 0.25598 1
2
 1 0.801291
2
 1 0.421664
2
 0.548342 1
2
 1 0.4011
2
 1 0.790564
2
 1 0.267927
2
 1 0.248723
2
 1 0.36638
2
 1 0.712549
2
 1 0.412733
2
 1 0.699087
2
 1 0.228466
2
 1 0.0672418
2
 1 0.10529
2
 1 0.449313
2
 1 0.436775
2
 1 0.189025
2
 1 0.0503412
2
 0.0134781 1
2
 0.0235975 1
2
 0.0801526 1
2
 0.012644 1
2
 0.485814 1
2
 0.137648 1
2
 0.17464 1
2
 0.35135 1
2
 1 0.924704
2
 0.409835 1
2
 0.512916 1
2
 0.390131 1
2
 0.437224 1
2
 0.191083 1
2
 0.823948 1
2
 0.305253 1
2
 1 0.211258
2
 1 0.666727
2
 1 0.224899
2
 1 0.447561
2
 1 0.100238
2
 1 0.177821
2
 1 0.338156
2
 1 0.746748
2
 0.651872 1
2
 0.8569 1
2
 0.382115 1
2
 1 0.248595
2
 1 0.766808
2
 1 0.155351
2
 1 0.471941
2
 1 0.162667
4
 0.920516 0.2269 0.2269 1
4
 0.922582 0.227082 0.227082 1
4
 0.923687 0.229345 0.229345 1
4
 0.922896 0.231547 0.231547 1
4
 0.925659 0.232655 0.232655 1
4
 1 0.284237 0.284237 0.974245
4
 1 0.281684 0.281684 0.980822
4
 1 0.286358 0.286358 0.975628
4
 1 0.285452 0.285452 0.978586
4
 1 0.289196 0.289196 0.969122
4
 1 0.287653 0.287653 0.972352
4
 1 0.279225 0.279225 0.987258
4
 1 0.276485 0.276485 0.993885
4
 1 0.280629 0.280629 0.991101
4
 1 0.281674 0.281674 0.988031
4
 1 0.284167 0.284167 0.981883
4
 1 0.282876 0.282876 0.984897
4
 1 0.348504 0.348504 0.954604
4
 1 0.350812 0.350812 0.950545
4
 1 0.35462 0.35462 0.952036
4
 1 0.351162 0.351162 0.955209
4
 1 0.355908 0.355908 0.94852
4
 1 0.347085 0.347085 0.953393
4
 1 0.343452 0.343452 0.960905
4
 1 0.347431 0.347431 0.958071
4
 1 0.343884 0.343884 0.954606
4
 1 0.341576 0.341576 0.957823
4
 1 0.34041 0.34041 0.960907
4
 1 0.351259 0.351259 0.946186
4
 1 0.35446 0.35446 0.947316
4
 1 0.346162 0.346162 0.950547
4
 1 0.357492 0.357492 0.941316
4
 1 0.36075 0.36075 0.942441
4
 1 0.346071 0.346071 0.961514
4
 1 0.338373 0.338373 0.96714
4
 1 0.339078 0.339078 0.964361
4
 1 0.345205 0.345205 0.963313
4
 1 0.353528 0.353528 0.955494
4
 1 0.358306 0.358306 0.948802
4
 1 0.352644 0.352644 0.957281
4
 1 0.348744 0.348744 0.944668
4
 1 0.349205 0.349205 0.960471
4
 1 0.334326 0.334326 0.994481
4
 1 0.336014 0.336014 0.994703
4
 1 0.339329 0.339329 0.987775
4
 1 0.336214 0.336214 0.989328
4
 1 0.333049 0.333049 0.993033
4
 1 0.333282 0.333282 0.997794
4
 0.998023 0.328416 0.328416 1
4
 1 0.330341 0.330341 0.996119
4
 1 0.328399 0.328399 0.999513
4
 0.998884 0.333351 0.333351 1
4
 0.9978 0.330001 0.330001 1
4
 0.961618 0.290277 0.290277 1
4
 0.962195 0.293021 0.293021 1
4
 0.96432 0.296773 0.296773 1
4
 0.964895 0.292988 0.292988 1
4
 0.967606 0.298879 0.298879 1
4
 0.969053 0.298596 0.298596 1
4
 0.958245 0.287643 0.287643 1
4
 0.960934 0.287611 0.287611 1
4
 0.955027 0.284753 0.284753 1
4
 0.955774 0.281245 0.281245 1
4
 0.959569 0.284244 0.284244 1
4
 0.953741 0.280968 0.280968 1
4
 0.960938 0.294081 0.294081 1
4
 0.9556 0.287445 0.287445 1
4
 0.95696 0.29085 0.29085 1
4
 0.959073 0.294575 0.294575 1
4
 0.961983 0.299055 0.299055 1
4
 0.966342 0.29996 0.29996 1
4
 0.965766 0.301815 0.301815 1
4
 0.962838 0.286899 0.286899 1
4
 0.967167 0.290572 0.290572 1
4
 0.968363 0.295854 0.295854 1
4
 0.967783 0.293084 0.293084 1
4
 0.954608 0.299253 0.299253 1
4
 0.955964 0.29812 0.29812 1
4
 0.959579 0.301167 0.301167 1
4
 0.962706 0.305636 0.305636 1
4
 0.949938 0.284484 0.284484 1
4
 0.953745 0.287928 0.287928 1
4
 0.951108 0.280774 0.280774 1
4
 0.947455 0.280867 0.280867 1
4
 0.949581 0.281092 0.281092 1
4
 0.95129 0.287855 0.287855 1
4
 0.947282 0.286421 0.286421 1
4
 0.95058 0.289275 0.289275 1
4
 0.945016 0.280796 0.280796 1
4
 0.949021 0.292425 0.292425 1
4
 0.952326 0.29534 0.29534 1
4
 0.95439 0.292776 0.292776 1
4
 0.958 0.29577 0.29577 1
4
 0.950369 0.291318 0.291318 1
4
 0.957285 0.297229 0.297229 1
4
 0.964037 0.304723 0.304723 1
4
 0.964685 0.303039 0.303039 1
4
 0.988118 0.271198 0.271198 1
4
 0.988194 0.274401 0.274401 1
4
 0.985058 0.269955 0.269955 1
4
 0.993193 0.27828 0.27828 1
4
 0.992449 0.275332 0.275332 1
4
 0.987008 0.266901 0.266901 1
4
 0.983879 0.267291 0.267291 1
4
 0.982665 0.264277 0.264277 1
4
 0.991262 0.272615 0.272615 1
4
 0.982737 0.262682 0.262682 1
4
 0.990814 0.268002 0.268002 1
4
 0.983294 0.271951 0.271951 1
4
 0.983955 0.270448 0.270448 1
4
 0.992081 0.278788 0.278788 1
4
 0.989009 0.278128 0.278128 1
4
 0.985061 0.275414 0.275414 1
4
 0.941586 0.263832 0.263832 1
4
 0.948085 0.26895 0.26895 1
4
 0.949469 0.271918 0.271918 1
4
 0.947941 0.26683 0.26683 1
4
 0.943275 0.261895 0.261895 1
4
 0.94148 0.262709 0.262709 1
4
 0.943843 0.267327 0.267327 1
4
 0.947449 0.27165 0.27165 1
4
 0.938002 0.260211 0.260211 1
4
 0.940356 0.264786 0.264786 1
4
 0.937443 0.262403 0.262403 1
4
 0.952491 0.274557 0.274557 1
4
 0.950958 0.26942 0.26942 1
4
 0.954592 0.273777 0.273777 1
4
 0.957668 0.280548 0.280548 1
4
 0.955986 0.276798 0.276798 1
4
 0.951852 0.277314 0.277314 1
4
 0.963484 0.283415 0.283415 1
4
 0.959781 0.279751 0.279751 1
4
 0.965793 0.28717 0.28717 1
4
 0.961502 0.27708 0.27708 1
4
 0.961791 0.279628 0.279628 1
4
 0.967815 0.287044 0.287044 1
4
 0.965283 0.280884 0.280884 1
4
 0.968537 0.285 0.285 1
4
 0.954161 0.269145 0.269145 1
4
 0.957807 0.273497 0.273497 1
4
 0.956659 0.2684 0.2684 1
4
 0.952805 0.265994 0.265994 1
4
 0.960673 0.272372 0.272372 1
4
 0.961285 0.274726 0.274726 1
4
 0.954448 0.271619 0.271619 1
4
 0.946134 0.262354 0.262354 1
4
 0.949464 0.264167 0.264167 1
4
 1 0.339522 0.339522 0.952934
4
 1 0.340229 0.340229 0.950195
4
 1 0.337243 0.337243 0.956145
4
 1 0.333503 0.333503 0.957756
4
 1 0.335976 0.335976 0.951548
4
 1 0.332729 0.332729 0.95529
4
 1 0.343684 0.343684 0.949023
4
 1 0.340668 0.340668 0.954965
4
 1 0.340094 0.340094 0.947643
4
 1 0.337226 0.337226 0.961268
4
 1 0.334629 0.334629 0.959798
4
 1 0.333556 0.333556 0.96242
4
 0.987104 0.299814 0.299814 1
4
 0.991839 0.305085 0.305085 1
4
 0.994436 0.304918 0.304918 1
4
 0.992503 0.301381 0.301381 1
4
 0.990132 0.298766 0.298766 1
4
 0.987139 0.297582 0.297582 1
4
 0.980376 0.2965 0.2965 1
4
 0.984452 0.300461 0.300461 1
4
 0.987991 0.302725 0.302725 1
4
 0.980154 0.293327 0.293327 1
4
 0.98331 0.29528 0.29528 1
4
 0.981551 0.299455 0.299455 1
4
 0.973803 0.293168 0.293168 1
4
 0.977265 0.292345 0.292345 1
4
 0.97453 0.29108 0.29108 1
4
 0.978328 0.298616 0.298616 1
4
 0.989175 0.305743 0.305743 1
4
 0.988992 0.30834 0.30834 1
4
 0.982396 0.302605 0.302605 1
4
 0.986075 0.305944 0.305944 1
4
 0.99533 0.307878 0.307878 1
4
 0.997193 0.311298 0.311298 1
4
 0.992546 0.310664 0.310664 1
4
 0.997977 0.31368 0.31368 1
4
 0.995035 0.311935 0.311935 1
4
 0.970858 0.288776 0.288776 1
4
 0.974642 0.296252 0.296252 1
4
 0.970752 0.293361 0.293361 1
4
 0.935815 0.235616 0.235616 1
4
 0.936936 0.237964 0.237964 1
4
 0.929784 0.232697 0.232697 1
4
 0.931731 0.233113 0.233113 1
4
 0.935083 0.238555 0.238555 1
4
 0.931768 0.236055 0.236055 1
4
 0.942166 0.238632 0.238632 1
4
 0.943295 0.241011 0.241011 1
4
 0.948455 0.24227 0.24227 1
4
 0.949628 0.245579 0.245579 1
4
 0.945944 0.243679 0.243679 1
4
 0.938933 0.237669 0.237669 1
4
 0.933717 0.232823 0.232823 1
4
 0.944069 0.238911 0.238911 1
4
 0.938199 0.240634 0.240634 1
4
 0.942697 0.242695 0.242695 1
4
 0.939685 0.258301 0.258301 1
4
 0.939085 0.253256 0.253256 1
4
 0.937684 0.256331 0.256331 1
4
 0.938138 0.254237 0.254237 1
4
 0.942002 0.254988 0.254988 1
4
 0.94479 0.259282 0.259282 1
4
 0.9359 0.257127 0.257127 1
4
 0.937338 0.261286 0.261286 1
4
 0.93289 0.246496 0.246496 1
4
 0.935755 0.250045 0.250045 1
4
 0.939609 0.250784 0.250784 1
4
 0.935018 0.245948 0.245948 1
4
 0.93153 0.243806 0.243806 1
4
 0.93436 0.253081 0.253081 1
4
 0.932128 0.252004 0.252004 1
4
 0.931951 0.247451 0.247451 1
4
 0.929724 0.246398 0.246398 1
4
 0.927743 0.241277 0.241277 1
4
 0.932579 0.249945 0.249945 1
4
 1 0.316943 0.316943 0.959198
4
 1 0.313942 0.313942 0.960599
4
 1 0.312073 0.312073 0.965205
4
 1 0.314769 0.314769 0.965095
4
 1 0.318454 0.318454 0.961206
4
 1 0.315891 0.315891 0.957444
4
 1 0.320431 0.320431 0.95805
4
 1 0.322582 0.322582 0.954547
4
 1 0.311037 0.311037 0.96344
4
 1 0.309079 0.309079 0.960314
4
 1 0.309096 0.309096 0.962506
4
 0.983877 0.322462 0.322462 1
4
 0.992075 0.328202 0.328202 1
4
 0.990999 0.324904 0.324904 1
4
 0.985017 0.321616 0.321616 1
4
 0.986637 0.320995 0.320995 1
4
 0.973271 0.314383 0.314383 1
4
 0.980536 0.318768 0.318768 1
4
 0.977207 0.316522 0.316522 1
4
 0.99471 0.327759 0.327759 1
4
 1 0.310233 0.310233 0.998181
4
 0.999804 0.311128 0.311128 1
4
 0.995997 0.30414 0.30414 1
4
 0.999502 0.306925 0.306925 1
4
 1 0.314824 0.314824 0.992228
4
 1 0.315794 0.315794 0.994232
4
 1 0.319643 0.319643 0.985942
4
 1 0.313885 0.313885 0.990821
4
 1 0.320174 0.320174 0.989633
4
 1 0.32165 0.32165 0.986899
4
 1 0.317214 0.317214 0.986976
4
 1 0.313093 0.313093 0.996316
4
 1 0.3112 0.3112 0.992898
4
 1 0.308957 0.308957 0.996616
4
 1 0.316212 0.316212 0.997543
4
 1 0.318414 0.318414 0.99371
4
 0.94475 0.253218 0.253218 1
4
 0.945317 0.256751 0.256751 1
4
 0.947261 0.256274 0.256274 1
4
 0.937923 0.247631 0.247631 1
4
 0.941189 0.249543 0.249543 1
4
 0.950238 0.255536 0.255536 1
4
 0.952764 0.25862 0.25862 1
4
 0.957332 0.2591 0.2591 1
4
 0.953011 0.254893 0.254893 1
4
 0.949491 0.253033 0.253033 1
4
 0.956796 0.260493 0.260493 1
4
 0.949494 0.257003 0.257003 1
4
 0.943408 0.250253 0.250253 1
4
 0.946232 0.251451 0.251451 1
4
 0.951949 0.263436 0.263436 1
4
 0.953907 0.262946 0.262946 1
4
 0.95981 0.269753 0.269753 1
4
 0.958733 0.267257 0.267257 1
4
 0.950064 0.260589 0.260589 1
4
 0.956835 0.264368 0.264368 1
4
 0.956047 0.261989 0.261989 1
4
 0.972653 0.258362 0.258362 1
4
 0.974398 0.257609 0.257609 1
4
 0.970257 0.257675 0.257675 1
4
 0.967432 0.2549 0.2549 1
4
 0.965732 0.252054 0.252054 1
4
 0.980174 0.267545 0.267545 1
4
 0.97721 0.265302 0.265302 1
4
 0.974803 0.264597 0.264597 1
4
 0.981276 0.272458 0.272458 1
4
 0.97692 0.2682 0.2682 1
4
 0.977867 0.263835 0.263835 1
4
 0.979621 0.263066 0.263066 1
4
 0.97666 0.26086 0.26086 1
4
 0.972509 0.260928 0.260928 1
4
 1 0.30572 0.30572 0.970743
4
 1 0.304255 0.304255 0.973905
4
 1 0.301364 0.301364 0.976968
4
 1 0.303813 0.303813 0.969802
4
 1 0.30016 0.30016 0.974381
4
 1 0.307703 0.307703 0.971214
4
 1 0.307256 0.307256 0.967122
4
 1 0.311856 0.311856 0.96795
4
 1 0.305322 0.305322 0.963984
4
 1 0.30187 0.30187 0.964166
4
 1 0.303319 0.303319 0.977442
4
 1 0.307466 0.307466 0.975323
4
 1 0.303908 0.303908 0.979269
4
 1 0.310361 0.310361 0.971103
4
 1 0.296235 0.296235 0.983014
4
 1 0.296986 0.296986 0.985072
4
 1 0.301021 0.301021 0.98235
4
 1 0.299236 0.299236 0.977919
4
 1 0.301668 0.301668 0.970746
4
 1 0.301887 0.301887 0.966366
4
 1 0.335629 0.335629 0.979507
4
 1 0.333897 0.333897 0.983947
4
 1 0.341478 0.341478 0.977931
4
 1 0.339701 0.339701 0.98207
4
 1 0.336583 0.336583 0.983614
4
 1 0.338734 0.338734 0.976034
4
 1 0.342461 0.342461 0.974866
4
 1 0.331745 0.331745 0.98347
4
 1 0.336551 0.336551 0.975561
4
 1 0.331732 0.331732 0.977644
4
 1 0.329617 0.329617 0.981342
4
 1 0.332688 0.332688 0.987594
4
 1 0.326965 0.326965 0.990554
4
 1 0.326412 0.326412 0.98852
4
 1 0.327916 0.327916 0.98579
4
 1 0.329556 0.329556 0.991293
4
 1 0.343394 0.343394 0.980015
4
 1 0.346184 0.346184 0.972826
4
 1 0.338471 0.338471 0.98571
4
 1 0.332207 0.332207 0.990958
4
 1 0.34265 0.34265 0.969308
4
 1 0.349111 0.349111 0.964175
4
 1 0.346421 0.346421 0.968148
4
 1 0.346994 0.346994 0.964393
4
 1 0.343402 0.343402 0.970939
4
 1 0.337163 0.337163 0.971015
4
 1 0.334801 0.334801 0.974178
4
 1 0.343971 0.343971 0.967173
4
 1 0.349878 0.349878 0.965797
4
 1 0.350457 0.350457 0.962051
4
 0.967289 0.257432 0.257432 1
4
 0.968811 0.261385 0.261385 1
4
 0.972221 0.263778 0.263778 1
4
 0.961233 0.252662 0.252662 1
4
 0.962493 0.255702 0.255702 1
4
 0.96599 0.25857 0.25857 1
4
 0.962778 0.251815 0.251815 1
4
 0.959261 0.253696 0.253696 1
4
 0.959545 0.24984 0.24984 1
4
 0.95418 0.246583 0.246583 1
4
 0.95536 0.24995 0.24995 1
4
 0.941449 0.269432 0.269432 1
4
 0.93969 0.26588 0.26588 1
4
 0.946212 0.272633 0.272633 1
4
 0.944693 0.272942 0.272942 1
4
 0.938533 0.267007 0.267007 1
4
 0.941417 0.273879 0.273879 1
4
 0.94353 0.274099 0.274099 1
4
 0.948303 0.277356 0.277356 1
4
 0.944661 0.277447 0.277447 1
4
 0.9277 0.229939 0.229939 1
4
 0.927736 0.232841 0.232841 1
4
 1 0.292468 0.292468 0.982943
4
 1 0.293687 0.293687 0.977302
4
 1 0.290396 0.290396 0.98001
4
 1 0.289076 0.289076 0.983018
4
 1 0.295431 0.295431 0.977849
4
 1 0.292833 0.292833 0.987581
4
 1 0.289829 0.289829 0.989282
4
 1 0.287635 0.287635 0.988655
4
 1 0.288705 0.288705 0.985593
4
 1 0.295052 0.295052 0.98041
4
 1 0.290563 0.290563 0.991354
4
 1 0.291484 0.291484 0.99395
4
 1 0.297563 0.297563 0.986914
4
 1 0.295405 0.295405 0.990314
4
 1 0.292157 0.292157 0.973985
4
 1 0.291232 0.291232 0.976938
4
 1 0.296282 0.296282 0.974784
4
 1 0.296497 0.296497 0.970386
4
 1 0.285559 0.285559 0.997973
4
 1 0.288494 0.288494 0.995661
4
 1 0.285406 0.285406 0.992432
4
 1 0.284968 0.284968 0.995217
4
 1 0.331051 0.331051 0.971381
4
 1 0.332336 0.332336 0.973088
4
 1 0.335377 0.335377 0.967141
4
 1 0.341437 0.341437 0.966091
4
 1 0.328733 0.328733 0.974546
4
 1 0.331741 0.331741 0.96859
4
 1 0.324599 0.324599 0.977283
4
 1 0.32813 0.32813 0.969751
4
 1 0.324591 0.324591 0.97342
4
 1 0.325858 0.325858 0.979
4
 1 0.327904 0.327904 0.979951
4
 1 0.332417 0.332417 0.965518
4
 1 0.323781 0.323781 0.982703
4
 1 0.319315 0.319315 0.982779
4
 1 0.321753 0.321753 0.977869
4
 0.977954 0.284739 0.284739 1
4
 0.977332 0.282299 0.282299 1
4
 0.972087 0.281006 0.281006 1
4
 0.969003 0.277686 0.277686 1
4
 0.975619 0.285425 0.285425 1
4
 0.97876 0.287325 0.287325 1
4
 0.973903 0.278496 0.278496 1
4
 0.971213 0.277068 0.277068 1
4
 0.981102 0.285362 0.285362 1
4
 0.984151 0.288595 0.288595 1
4
 0.985514 0.291599 0.291599 1
4
 0.982535 0.290443 0.290443 1
4
 0.983524 0.286122 0.286122 1
4
 0.980659 0.281158 0.281158 1
4
 0.977037 0.279106 0.279106 1
4
 0.987871 0.288963 0.288963 1
4
 0.983707 0.284343 0.284343 1
4
 0.990979 0.293304 0.293304 1
4
 0.987947 0.292375 0.292375 1
4
 0.992401 0.31585 0.31585 1
4
 0.99634 0.317802 0.317802 1
4
 0.99485 0.314585 0.314585 1
4
 0.995448 0.318975 0.318975 1
4
 0.989437 0.310869 0.310869 1
4
 0.993035 0.321427 0.321427 1
4
 0.996084 0.324607 0.324607 1
4
 0.989293 0.318174 0.318174 1
4
 0.989258 0.320562 0.320562 1
4
 0.995487 0.321567 0.321567 1
4
 0.9887 0.315195 0.315195 1
4
 0.989475 0.313396 0.313396 1
4
 0.996468 0.285338 0.285338 1
4
 0.993383 0.284663 0.284663 1
4
 0.998782 0.28894 0.28894 1
4
 0.999082 0.291596 0.291596 1
4
 0.996025 0.290673 0.290673 1
4
 0.992308 0.286225 0.286225 1
4
 0.994012 0.282059 0.282059 1
4
 0.999414 0.286297 0.286297 1
4
 0.996353 0.279734 0.279734 1
4
 0.99986 0.282924 0.282924 1
4
 0.989862 0.282936 0.282936 1
4
 0.986979 0.278646 0.278646 1
4
 1 0.291981 0.291981 0.997969
4
 1 0.293301 0.293301 0.994617
4
 0.964912 0.26428 0.26428 1
4
 0.960843 0.258901 0.258901 1
4
 0.964333 0.261806 0.261806 1
4
 0.956829 0.256833 0.256833 1
4
 0.96063 0.262476 0.262476 1
4
 0.96809 0.265023 0.265023 1
4
 0.972479 0.269997 0.269997 1
4
 0.971137 0.271409 0.271409 1
4
 0.964372 0.265701 0.265701 1
4
 0.968455 0.270017 0.270017 1
4
 0.964008 0.259629 0.259629 1
4
 0.956612 0.252958 0.252958 1
4
 0.956506 0.254698 0.254698 1
4
 0.971896 0.267469 0.267469 1
4
 0.970915 0.264945 0.264945 1
4
 1 0.310593 0.310593 0.97605
4
 1 0.308417 0.308417 0.97923
4
 1 0.305137 0.305137 0.98022
4
 1 0.311616 0.311616 0.972046
4
 1 0.310299 0.310299 0.979009
4
 1 0.313517 0.313517 0.971827
4
 1 0.315695 0.315695 0.971644
4
 1 0.315132 0.315132 0.974554
4
 1 0.313543 0.313543 0.97791
4
 1 0.305967 0.305967 0.985398
4
 1 0.304848 0.304848 0.983192
4
 1 0.309179 0.309179 0.984586
4
 1 0.311347 0.311347 0.981096
4
 1 0.302713 0.302713 0.986395
4
 1 0.30171 0.30171 0.992125
4
 1 0.300518 0.300518 0.989793
4
 1 0.303488 0.303488 0.992383
4
 1 0.307014 0.307014 0.987794
4
 1 0.299418 0.299418 0.987577
4
 0.99927 0.294331 0.294331 1
4
 1 0.297083 0.297083 0.996661
4
 1 0.295909 0.295909 0.994318
4
 1 0.297051 0.297051 0.999719
4
 0.992495 0.288909 0.288909 1
4
 0.992682 0.290971 0.290971 1
4
 1 0.298802 0.298802 0.99998
4
 0.995805 0.295342 0.295342 1
4
 1 0.298426 0.298426 0.993314
4
 1 0.301375 0.301375 0.995914
4
 0.934841 0.242043 0.242043 1
4
 0.936591 0.244732 0.244732 1
4
 0.928746 0.238365 0.238365 1
4
 0.929859 0.240741 0.240741 1
4
 0.931527 0.239506 0.239506 1
4
 0.938096 0.243912 0.243912 1
4
 0.933024 0.238704 0.238704 1
4
 0.940833 0.243298 0.243298 1
4
 0.940905 0.245079 0.245079 1
4
 0.942666 0.247802 0.247802 1
4
 0.925281 0.236289 0.236289 1
4
 0.926941 0.235077 0.235077 1
4
 1 0.316735 0.316735 0.967658
4
 1 0.318232 0.318232 0.96394
4
 1 0.321634 0.321634 0.96621
4
 1 0.32762 0.32762 0.963179
4
 1 0.326569 0.326569 0.96581
4
 1 0.323154 0.323154 0.962498
4
 1 0.32686 0.32686 0.960699
4
 1 0.32106 0.32106 0.969103
4
 1 0.323047 0.323047 0.969464
4
 1 0.320443 0.320443 0.963759
4
 1 0.318366 0.318366 0.970373
4
 1 0.329857 0.329857 0.964042
4
 1 0.33015 0.33015 0.95894
4
 1 0.325252 0.325252 0.970333
4
 0.988978 0.286518 0.286518 1
4
 0.985912 0.280175 0.280175 1
4
 0.984808 0.281938 0.281938 1
4
 0.979666 0.274202 0.274202 1
4
 0.97857 0.275928 0.275928 1
4
 0.975317 0.269918 0.269918 1
4
 0.974956 0.273913 0.273913 1
4
 0.984994 0.283949 0.283949 1
4
 0.992276 0.292898 0.292898 1
4
 0.98194 0.277663 0.277663 1
4
 0.978676 0.271615 0.271615 1
4
 0.977219 0.277371 0.277371 1
4
 0.955714 0.245757 0.245757 1
4
 0.951546 0.245865 0.245865 1
4
 0.952616 0.250937 0.250937 1
4
 0.949026 0.247295 0.247295 1
4
 0.948921 0.248996 0.248996 1
4
 0.948993 0.250819 0.250819 1
4
 0.945416 0.247178 0.247178 1
4
 0.994729 0.29895 0.29895 1
4
 0.99756 0.303364 0.303364 1
4
 0.991686 0.298004 0.298004 1
4
 1 0.306674 0.306674 0.991566
4
 1 0.306691 0.306691 0.993829
4
 0.999611 0.300787 0.300787 1
4
 1 0.30448 0.30448 0.99755
4
 1 0.310254 0.310254 0.989232
4
 1 0.313545 0.313545 0.985393
4
 1 0.312411 0.312411 0.983481
4
 1 0.308035 0.308035 0.995203
4
 1 0.313562 0.313562 0.987642
4
 0.99823 0.301688 0.301688 1
4
 0.992352 0.296357 0.296357 1
4
 0.966905 0.277019 0.277019 1
4
 0.967521 0.279413 0.279413 1
4
 0.973507 0.28474 0.28474 1
4
 0.970782 0.283507 0.283507 1
4
 0.964451 0.276111 0.276111 1
4
 0.962756 0.271212 0.271212 1
4
 0.966036 0.273137 0.273137 1
4
 0.968319 0.282579 0.282579 1
4
 0.998584 0.273191 0.273191 1
4
 0.995084 0.27374 0.27374 1
4
 0.99769 0.274199 0.274199 1
4
 1 0.276203 0.276203 0.998278
4
 1 0.279062 0.279062 0.994589
4
 0.998214 0.277235 0.277235 1
4
 0.999111 0.279927 0.279927 1
4
 1 0.280343 0.280343 0.995481
4
 1 0.279913 0.279913 0.998275
4
 1 0.282811 0.282811 0.994587
4
 1 0.284299 0.284299 0.988731
4
 1 0.291354 0.291354 0.970498
4
 1 0.295683 0.295683 0.966912
4
 1 0.288883 0.288883 0.976684
4
 1 0.294105 0.294105 0.970134
4
 1 0.28666 0.28666 0.982653
4
 1 0.331035 0.331035 0.951017
4
 1 0.332598 0.332598 0.952724
4
 1 0.324119 0.324119 0.956545
4
 1 0.32565 0.32565 0.958262
4
 1 0.327836 0.327836 0.954758
4
 0.967828 0.307536 0.307536 1
4
 0.97109 0.311349 0.311349 1
4
 0.969056 0.303957 0.303957 1
4
 0.971084 0.301803 0.301803 1
4
 0.97272 0.305701 0.305701 1
4
 0.97214 0.307591 0.307591 1
4
 0.971742 0.309628 0.309628 1
4
 0.986326 0.294247 0.294247 1
4
 0.974309 0.287966 0.287966 1
4
 0.980189 0.291143 0.291143 1
4
 0.960884 0.266283 0.266283 1
4
 0.964952 0.270609 0.270609 1
4
 0.970921 0.273934 0.273934 1
4
 0.964158 0.268173 0.268173 1
4
 1 0.321141 0.321141 0.994972
4
 1 0.323377 0.323377 0.991148
4
 1 0.32309 0.32309 0.996421
4
 1 0.326492 0.326492 0.993928
4
 1 0.320598 0.320598 0.992929
4
 1 0.317546 0.317546 0.999707
4
 1 0.324319 0.324319 0.986382
4
 0.998838 0.319102 0.319102 1
4
 1 0.32565 0.32565 0.997165
4
 0.999438 0.323554 0.323554 1
4
 1 0.327145 0.327145 0.998059
4
 1 0.319765 0.319765 0.973641
4
 1 0.316196 0.316196 0.976631
4
 1 0.319307 0.319307 0.978894
4
 1 0.315742 0.315742 0.9819
4
 1 0.318153 0.318153 0.976995
4
 1 0.298257 0.298257 0.970929
4
 0.983287 0.317318 0.317318 1
4
 0.97874 0.313615 0.313615 1
4
 0.978339 0.315692 0.315692 1
4
 0.982069 0.306838 0.306838 1
4
 0.982838 0.305087 0.305087 1
4
 0.975263 0.298812 0.298812 1
4
 0.978295 0.303545 0.303545 1
4
 0.984939 0.314346 0.314346 1
4
 0.985747 0.310224 0.310224 1
4
 0.98119 0.308657 0.308657 1
4
 0.98035 0.313009 0.313009 1
4
 0.981154 0.310973 0.310973 1
4
 0.971953 0.298693 0.298693 1
4
 0.974175 0.305411 0.305411 1
4
 0.974975 0.303424 0.303424 1
4
 0.97439 0.300583 0.300583 1
4
 0.976617 0.307343 0.307343 1
4
 0.975417 0.311405 0.311405 1
1
 1

